NAME : eil51.683.tour
COMMENT : Cost = 112_683
COMMENT : Found by LKH [Keld Helsgaun] Thu Nov 16 20:48:27 2017
TYPE : TOUR
DIMENSION : 60
TOUR_SECTION
1
22
52
27
53
47
19
40
41
4
51
58
46
12
17
42
44
45
15
37
5
57
8
56
2
16
50
34
21
29
20
35
36
3
59
6
14
25
13
18
54
11
38
49
10
33
39
30
9
55
48
23
24
43
7
26
31
28
60
32
-1
EOF
